SPARKNaCl/why3-z3/sparknacl-hashing-rfsb509.adb_132_15_range_check2_1.smt2
;; produced by z3_gnatprove.drv ;;
(set-info :smt-lib-version 2.5)
(set-info :source |VC generated by SPARK 2014|)
(set-info :category industrial)
(set-info :status unknown)
;;; generated by SMT-LIB2 driver
;;; SMT-LIB2 driver: bit-vectors, common part
;;; SMT-LIB2: integer arithmetic
(declare-datatypes ()
  ((int__ref (int__refqtmk (int__content Int)))))

(declare-datatypes ()
  ((t__ref (t__refqtmk (t__content (_ BitVec 8))))))

;; "in_range"
(define-fun in_range ((x Int)) Bool
  (and (<= (- 2147483648) x) (<= x 2147483647)))

(declare-sort byte 0)

;; "to_rep"
(declare-fun to_rep (byte) (_ BitVec 8))

;; "of_rep"
(declare-fun of_rep ((_ BitVec 8)) byte)

;; "inversion_axiom"
(assert
  (forall ((x byte)) (! (= (of_rep (to_rep x)) x) :pattern ((to_rep x)) )))

;; "range_axiom"
(assert true)

;; "coerce_axiom"
(assert
  (forall ((x (_ BitVec 8)))
    (! (= (to_rep (of_rep x)) x) :pattern ((to_rep (of_rep x))) )))

(declare-sort map1 0)

(declare-datatypes ()
  ((map__ref (map__refqtmk (map__content map1)))))

;; "has_bounds"
(declare-fun has_bounds (map1
  Int
  Int) Bool)

;; "get"
(declare-fun get (map1
  Int) byte)

(declare-const three_msb_mask (_ BitVec 8))

(declare-const exponent Int)

(declare-const shift_amount Int)

(declare-datatypes ()
  ((byte__init_wrapper
   (byte__init_wrapperqtmk (rec__value byte)(us_attr__init Bool)))))

(declare-sort map2 0)

(declare-datatypes ()
  ((map__ref1 (map__refqtmk1 (map__content1 map2)))))

;; "has_bounds"
(declare-fun has_bounds1 (map2
  Int
  Int) Bool)

;; "get"
(declare-fun get1 (map2
  Int) byte__init_wrapper)

;; "set"
(declare-fun set (map2
  Int
  byte__init_wrapper) map2)

;; "set_eq"
(assert
  (forall ((a map2) (i Int) (v byte__init_wrapper))
    (! (= (get1 (set a i v) i) v) :pattern ((set a i v)) )))

;; "set_neq"
(assert
  (forall ((a map2) (i Int) (v byte__init_wrapper))
    (! (forall ((j Int))
         (! (=> (not (= i j)) (= (get1 (set a i v) j) (get1 a j))) :pattern (
         (get1
           a
           j)) :pattern ((get1 (set a i v) j)) )) :pattern ((set a i v)) )))

;; "set_has_bounds"
(assert
  (forall ((a map2) (i Int) (f Int) (l Int) (v byte__init_wrapper))
    (! (=>
         (and (<= f i) (<= i l))
         (=> (has_bounds1 a f l) (has_bounds1 (set a i v) f l))) :pattern (
    (has_bounds1
      (set a i v)
      f
      l)) )))

(declare-const factor_pivot Int)

(declare-const product_pivot Int)

(declare-sort tinteger_32B 0)

;; "tinteger_32B'int"
(declare-fun tinteger_32Bqtint (tinteger_32B) Int)

;; "tinteger_32B'axiom"
(assert
  (forall ((i tinteger_32B))
    (and
      (<= (- 2147483648) (tinteger_32Bqtint i))
      (<= (tinteger_32Bqtint i) 2147483647))))

;; "in_range"
(define-fun in_range1 ((x Int)) Bool
  (and (<= (- 2147483648) x) (<= x 2147483647)))

;; "in_range"
(define-fun in_range2 ((x Int)) Bool
  (and (<= 0 x) (<= x 63)))

;; "dynamic_invariant"
(define-fun dynamic_invariant ((temp___expr_371 map1) (temp___is_init_367 Bool) (temp___skip_constant_368 Bool) (temp___do_toplevel_369 Bool) (temp___do_typ_inv_370 Bool)) Bool
  (and
    (=>
      (= temp___is_init_367 true)
      (=>
        (= temp___do_toplevel_369 true)
        (= (bvand (to_rep (get temp___expr_371 63)) #xE0) #x00)))
    (has_bounds temp___expr_371 0 63)))

;; "to_rep"
(define-fun to_rep1 ((x tinteger_32B)) Int
  (tinteger_32Bqtint x))

;; "of_rep"
(declare-fun of_rep1 (Int) tinteger_32B)

;; "inversion_axiom"
(assert
  (forall ((x tinteger_32B))
    (! (= (of_rep1 (to_rep1 x)) x) :pattern ((to_rep1 x)) )))

;; "range_axiom"
(assert
  (forall ((x tinteger_32B))
    (! (in_range1 (to_rep1 x)) :pattern ((to_rep1 x)) )))

;; "coerce_axiom"
(assert
  (forall ((x Int))
    (! (=> (in_range1 x) (= (to_rep1 (of_rep1 x)) x)) :pattern ((to_rep1
                                                                  (of_rep1 x))) )))

(declare-const a map1)

(declare-const product1 map2)

(declare-const upper_part (_ BitVec 8))

;; "upper_part'unused"
(define-fun upper_partqtunused () t__ref
  (t__refqtmk upper_part))

;; "product'unused"
(define-fun productqtunused () map__ref1
  (map__refqtmk1 product1))

;; "a'unused"
(define-fun aqtunused () map__ref
  (map__refqtmk a))

;; "Assume"
(assert (dynamic_invariant a true false true true))

;; "ada___ada___sparknacl__hashing__rfsb509__mul128__three_msb_mask__assume'unused"
(define-fun ada___ada___sparknacl__hashing__rfsb509__mul128__three_msb_mask__assumeqtunused 
  () (_ BitVec 8)
  #xE0)

;; "Assume"
(assert (= #xE0 three_msb_mask))

;; "Assume"
(assert true)

;; "ada___ada___sparknacl__hashing__rfsb509__mul128__exponent__assume'unused"
(define-fun ada___ada___sparknacl__hashing__rfsb509__mul128__exponent__assumeqtunused 
  () Int
  16)

;; "Assume"
(assert (= 16 exponent))

;; "Assume"
(assert (in_range2 exponent))

;; "ada___ada___sparknacl__hashing__rfsb509__mul128__shift_amount__assume'unused"
(define-fun ada___ada___sparknacl__hashing__rfsb509__mul128__shift_amount__assumeqtunused 
  () Int
  5)

;; "Assume"
(assert (= 5 shift_amount))

;; "Assume"
(assert (in_range shift_amount))

;; "Assume"
(assert (has_bounds1 product1 0 63))

;; "ada___ada___sparknacl__hashing__rfsb509__mul128__factor_pivot__assume'unused"
(define-fun ada___ada___sparknacl__hashing__rfsb509__mul128__factor_pivot__assumeqtunused 
  () Int
  47)

;; "Assume"
(assert (= 47 factor_pivot))

;; "Assume"
(assert (in_range2 factor_pivot))

;; "ada___ada___sparknacl__hashing__rfsb509__mul128__product_pivot__assume'unused"
(define-fun ada___ada___sparknacl__hashing__rfsb509__mul128__product_pivot__assumeqtunused 
  () Int
  16)

;; "Assume"
(assert (= 16 product_pivot))

;; "Assume"
(assert (in_range2 product_pivot))

(declare-const factor_index Int)

;; "factor_index'unused"
(define-fun factor_indexqtunused () int__ref
  (int__refqtmk factor_index))

;; "H"
(assert (= factor_index 47))

;; "Assume"
(assert (in_range2 factor_index))

(declare-const product_index Int)

;; "product_index'unused"
(define-fun product_indexqtunused () int__ref
  (int__refqtmk product_index))

;; "H"
(assert (= product_index 0))

;; "Assume"
(assert (in_range2 product_index))

;; "int__content'result'unused"
(define-fun int__contentqtresultqtunused () Int
  factor_index)

;; "map__content'result'unused"
(define-fun map__contentqtresultqtunused () map1
  a)

;; "o"
(define-fun o () byte
  (get a factor_index))

;; "get'result'unused"
(define-fun getqtresultqtunused () byte
  o)

(declare-const o1 (_ BitVec 8))

;; "Ensures"
(assert (= (to_rep o) o1))

;; "to_rep'result'unused"
(define-fun to_repqtresultqtunused () (_ BitVec 8)
  o1)

(declare-const current_byte (_ BitVec 8))

;; "current_byte'unused"
(define-fun current_byteqtunused () t__ref
  (t__refqtmk current_byte))

;; "H"
(assert (= current_byte o1))

;; "Assume"
(assert true)

(declare-const o2 (_ BitVec 8))

(declare-const infix_lsqtresultqtunused Bool)

;; "H"
(assert (= infix_lsqtresultqtunused (ite (< 5 8) true false)))

(declare-const o3 (_ BitVec 8))

(declare-const of_intqtresultqtunused (_ BitVec 8))

(declare-const t__contentqtresultqtunused (_ BitVec 8))

(declare-const lsr_bvqtresultqtunused (_ BitVec 8))

;; "H"
(assert
  (ite (< 5 8)
    (and
      (= o3 ((_ int2bv 8) 5))
      (and
        (= of_intqtresultqtunused o3)
        (and
          (= t__contentqtresultqtunused current_byte)
          (and (= o2 (bvlshr current_byte o3)) (= lsr_bvqtresultqtunused o2)))))
    (= o2 #x00)))

;; "Ensures"
(assert true)

;; "range_check_'result'unused"
(define-fun range_check_qtresultqtunused () (_ BitVec 8)
  o2)

(declare-const lower_part (_ BitVec 8))

;; "lower_part'unused"
(define-fun lower_partqtunused () t__ref
  (t__refqtmk lower_part))

;; "H"
(assert (= lower_part o2))

;; "Assume"
(assert true)

;; "Assume"
(assert true)

;; "Assume"
(assert true)

;; "t__content'result'unused"
(define-fun t__contentqtresultqtunused1 () (_ BitVec 8)
  lower_part)

(declare-const o4 byte)

;; "Ensures"
(assert (= (to_rep o4) lower_part))

;; "of_rep'result'unused"
(define-fun of_repqtresultqtunused () byte
  o4)

;; "o"
(define-fun o5 () byte__init_wrapper
  (byte__init_wrapperqtmk o4 true))

;; "to_wrapper'result'unused"
(define-fun to_wrapperqtresultqtunused () byte__init_wrapper
  o5)

;; "int__content'result'unused"
(define-fun int__contentqtresultqtunused1 () Int
  product_index)

;; "map__content'result'unused"
(define-fun map__contentqtresultqtunused1 () map2
  product1)

;; "o"
(define-fun o6 () map2
  (set product1 product_index o5))

;; "set'result'unused"
(define-fun setqtresultqtunused () map2
  o6)

(declare-const product2 map2)

;; "product'unused"
(define-fun productqtunused1 () map__ref1
  (map__refqtmk1 product2))

;; "H"
(assert (= product2 o6))

;; "int__content'result'unused"
(define-fun int__contentqtresultqtunused2 () Int
  factor_index)

;; "Ensures"
(assert (not (= factor_index 2147483647)))

;; "check_not_last'result'unused"
(define-fun check_not_lastqtresultqtunused () Int
  factor_index)

;; "o"
(define-fun o7 () Int
  (+ factor_index 1))

;; "infix +'result'unused"
(define-fun infix_plqtresultqtunused () Int
  o7)

;; "Ensures"
(assert (in_range2 o7))

;; "range_check_'result'unused"
(define-fun range_check_qtresultqtunused1 () Int
  o7)

(declare-const factor_index1 Int)

;; "factor_index'unused"
(define-fun factor_indexqtunused1 () int__ref
  (int__refqtmk factor_index1))

;; "H"
(assert (= factor_index1 o7))

;; "int__content'result'unused"
(define-fun int__contentqtresultqtunused3 () Int
  product_index)

;; "infix <'result'unused"
(define-fun infix_lsqtresultqtunused1 () Bool
  (ite (< product_index 16) true false))

;; "H"
(assert (< product_index 16))

;; "temp___loop_entry_787'unused"
(define-fun temp___loop_entry_787qtunused () (_ BitVec 8)
  current_byte)

;; "t__content'result'unused"
(define-fun t__contentqtresultqtunused2 () (_ BitVec 8)
  current_byte)

;; "temp___loop_entry_786'unused"
(define-fun temp___loop_entry_786qtunused () Int
  product_index)

;; "int__content'result'unused"
(define-fun int__contentqtresultqtunused4 () Int
  product_index)

;; "temp___loop_entry_785'unused"
(define-fun temp___loop_entry_785qtunused () Int
  factor_index1)

;; "int__content'result'unused"
(define-fun int__contentqtresultqtunused5 () Int
  factor_index1)

;; "temp___loop_entry_783'unused"
(define-fun temp___loop_entry_783qtunused () map2
  product2)

;; "map__content'result'unused"
(define-fun map__contentqtresultqtunused2 () map2
  product2)

;; "temp___loop_entry_781'unused"
(define-fun temp___loop_entry_781qtunused () (_ BitVec 8)
  upper_part)

;; "t__content'result'unused"
(define-fun t__contentqtresultqtunused3 () (_ BitVec 8)
  upper_part)

;; "temp___loop_entry_780'unused"
(define-fun temp___loop_entry_780qtunused () (_ BitVec 8)
  lower_part)

;; "t__content'result'unused"
(define-fun t__contentqtresultqtunused4 () (_ BitVec 8)
  lower_part)

;; "map__content'result'unused"
(define-fun map__contentqtresultqtunused3 () map2
  product2)

;; "int__content'result'unused"
(define-fun int__contentqtresultqtunused6 () Int
  product_index)

;; "temp___800"
(define-fun temp___800 () byte__init_wrapper
  (get1 product2 product_index))

;; "get'result'unused"
(define-fun getqtresultqtunused1 () byte__init_wrapper
  temp___800)

;; "Assert"
(assert (= (us_attr__init temp___800) true))

;; "o"
(define-fun o8 () byte
  (rec__value temp___800))

;; "of_wrapper'result'unused"
(define-fun of_wrapperqtresultqtunused () byte
  o8)

(declare-const o9 (_ BitVec 8))

;; "Ensures"
(assert (= (to_rep o8) o9))

;; "to_rep'result'unused"
(define-fun to_repqtresultqtunused1 () (_ BitVec 8)
  o9)

;; "o"
(define-fun o10 () (_ BitVec 8)
  (bvand o9 #xF8))

;; "bw_and'result'unused"
(define-fun bw_andqtresultqtunused () (_ BitVec 8)
  o10)

;; "o"
(define-fun o11 () Bool
  (ite (= o10 #x00) true false))

;; "eq'result'unused"
(define-fun eqqtresultqtunused () Bool
  o11)

;; "int__content'result'unused"
(define-fun int__contentqtresultqtunused7 () Int
  product_index)

;; "map__content'result'unused"
(define-fun map__contentqtresultqtunused4 () map2
  product2)

;; "H"
(assert (<= 0 product_index))

;; Goal "def'vc"
;; File "sparknacl-hashing-rfsb509.adb", line 47, characters 0-0
(assert
  (not (<= 0 63)))

(check-sat)
